************************************************************************
file with basedata            : mm32_.bas
initial value random generator: 878502723
************************************************************************
projects                      :  1
jobs (incl. supersource/sink ):  12
horizon                       :  68
RESOURCES
  - renewable                 :  2   R
  - nonrenewable              :  2   N
  - doubly constrained        :  0   D
************************************************************************
PROJECT INFORMATION:
pronr.  #jobs rel.date duedate tardcost  MPM-Time
    1     10      0       12        0       12
************************************************************************
PRECEDENCE RELATIONS:
jobnr.    #modes  #successors   successors
   1        1          3           2   3   4
   2        3          2           6   9
   3        3          1           5
   4        3          2           7   8
   5        3          2           6   9
   6        3          1          11
   7        3          2           9  10
   8        3          2          10  11
   9        3          1          12
  10        3          1          12
  11        3          1          12
  12        1          0        
************************************************************************
REQUESTS/DURATIONS:
jobnr. mode duration  R 1  R 2  N 1  N 2
------------------------------------------------------------------------
  1      1     0       0    0    0    0
  2      1     3       0    6    4    9
         2     3       3    0    7    9
         3     4       3    0    3    9
  3      1     3       6    0    9    8
         2     3       0    5    6    9
         3     3       0    9   10    8
  4      1     3       9    0    6    9
         2     5       0    9    5    8
         3     6       0    5    5    4
  5      1     4       0    7    1    4
         2     7       8    0    1    4
         3     9       0    7    1    2
  6      1     2       0    6    4    4
         2     5       3    0    4    3
         3    10       0    5    3    1
  7      1     1       0    7    6    4
         2     6       0    6    5    4
         3     8       2    0    3    4
  8      1     4       2    0    6    9
         2     6       2    0    5    8
         3     6       0    2    3    8
  9      1     5       4    0    5    7
         2     6       4    0    4    6
         3     7       0    5    4    2
 10      1     1       0    5    6    9
         2     7       8    0    6    8
         3    10       7    0    4    6
 11      1     1       0    2    7   10
         2     1       5    0    8    9
         3     5       4    0    3    9
 12      1     0       0    0    0    0
************************************************************************
RESOURCEAVAILABILITIES:
  R 1  R 2  N 1  N 2
   18   24   59   74
************************************************************************
MAXIMAL LAGS:
from  to  type  delay
    1   12   ES      0
    1    2   ES      0
    2   12   ES      0
    1    3   ES      0
    3   12   ES      0
    1    4   ES      0
    4   12   ES      0
    1    5   ES      0
    5   12   ES      0
    1    6   ES      0
    6   12   ES      0
    1    7   ES      0
    7   12   ES      0
    1    8   ES      0
    8   12   ES      0
    1    9   ES      0
    9   12   ES      0
    1   10   ES      0
   10   12   ES      0
    1   11   ES      0
   11   12   ES      0
    1   12   ES      0
    2    6   SS      9
    2    6   SE      5
    2    6   ES     -7
    2    6   EE      8
    2    9   SS    -11
    2    9   SE     11
    2    9   ES      3
    2    9   EE    -12
    3    5   SS    -11
    3    5   SE    -10
    3    5   ES     -2
    3    5   EE      7
    4    7   SS     -3
    4    7   SE    -10
    4    7   ES      1
    4    7   EE     -1
    4    8   SS      9
    4    8   SE      9
    4    8   ES    -10
    4    8   EE      0
    5    6   SS     11
    5    6   SE     -8
    5    6   ES     -5
    5    6   EE     -9
    5    9   SS      6
    5    9   SE     11
    5    9   ES      4
    5    9   EE     -9
    6   11   SS      4
    6   11   SE      9
    6   11   ES      6
    6   11   EE     12
    7    9   SS      4
    7    9   SE     -4
    7    9   ES      3
    7    9   EE    -10
    7   10   SS     -5
    7   10   SE      7
    7   10   ES     -9
    7   10   EE     12
    8   10   SS     -2
    8   10   SE     -2
    8   10   ES      6
    8   10   EE     11
    8   11   SS      0
    8   11   SE     11
    8   11   ES     11
    8   11   EE     -5
************************************************************************
